** ======================================================================
** Etap 1: sam ogon w CalculiX, bez wody.
** Quasi-statyczna rampa ciśnienia w komorze R (0 -> P_MAX).
** ======================================================================
** Siatka, zbiory węzłów i materiał generuje tools/make_geometry.py solid .
*INCLUDE, INPUT=tail.msh
*INCLUDE, INPUT=tail_sets.nam
*INCLUDE, INPUT=material.inc
**
** Rampa liniowa w "czasie" kroku statycznego (czas = parametr obciążenia 0..1)
*AMPLITUDE, NAME=RAMP
0., 0., 1., 1.
**
** NLGEOM: nieliniowość geometryczna – ugięcia są duże (kilkanaście % długości),
** więc liniowa teoria małych przemieszczeń dawałaby błędny kształt.
*STEP, NLGEOM, INC=1000
** przyrost początkowy 0.05, czas 1, min 1e-5, max 0.05 -> co najmniej 20 punktów
*STATIC, SOLVER=PARDISO
0.05, 1.0, 1e-5, 0.05
**
** Nasada sklejona ze sztywną głową: pełne utwierdzenie.
*BOUNDARY
Nfix, 1, 3
** Model 2D: blokujemy z we wszystkich węzłach (płaski stan odkształcenia).
*BOUNDARY
Nall, 3, 3
**
** Ciśnienie na ściankach wszystkich cel komory R.
** P_MAX = 20 kPa  PLACEHOLDER – do identyfikacji z pomiarów
** (powyżej ~21 kPa rozwiązanie traci zbieżność, patrz NOTES.md)
*DLOAD, AMPLITUDE=RAMP
SchR, P, 20000.
**
** Przemieszczenie środka końcówki w każdym przyroście -> plik .dat
*NODE PRINT, NSET=Ntip
U
*NODE FILE
U
*EL FILE
S, E
*END STEP
